data;

set manufacturers := M1 M2 M3 M4;
set racquets := R1 R2 R3 R4 R5;

param profits: R1 R2 R3 R4 R5 :=
    M1 5.5 7 8.5 4.5 3
    M2 6 6.5 9 3.5 2
    M3 5 7 9.5 4 2.5
    M4 6.5 5.5 8 5 3.5;

param offers :=
    M1 600
    M2 500
    M3 300
    M4 400;

param purchase :=
    R1 300
    R2 200
    R3 150
    R4 500
    R5 400;